32      4       
15      17      13      11      
0       0       0       0       0       3       2       4       6       
4       8       8       0       0       2       5       3       
10      0       0       9       4       2       10      7       
9       7       0       0       1       2       10      7       
1       3       7       0       0       3       10      9       8       
6       15      0       0       6       1       7       
5       0       0       7       1       2       9       8       
7       3       0       0       11      1       11      
7       14      0       1       0       1       11      
7       0       10      7       0       1       11      
8       8       7       0       0       2       14      12      
5       0       13      3       0       1       13      
6       8       6       0       0       2       16      15      
2       0       16      4       0       2       17      16      
2       0       5       0       3       2       23      17      
8       0       0       4       4       4       23      21      20      19      
9       0       0       13      8       1       18      
3       1       0       0       9       3       21      20      19      
10      0       7       0       3       2       24      22      
5       0       1       0       8       3       29      25      24      
2       15      0       0       10      3       29      25      24      
4       15      0       1       0       3       29      28      25      
1       4       17      0       0       2       29      24      
7       0       0       13      4       3       28      27      26      
4       7       6       0       0       2       27      26      
3       0       0       5       1       2       31      30      
10      0       17      8       0       2       31      30      
10      0       6       9       0       2       31      30      
5       1       0       0       10      2       31      30      
5       0       2       13      0       1       32      
4       4       0       1       0       1       32      
0       0       0       0       0       0       
